Name: EasyAcademy14
Courses: 545
Rooms: 124
Days: 6
Periods_per_day: 24
Curricula: 112
Min_Max_Daily_Lectures: 2 8
UnavailabilityConstraints: 0
RoomConstraints: 197

COURSES:
c72256 t24223 8 2 63 1
c72257 t24224 10 2 250 1
c72258 t24223 7 2 12 1
c72259 t24225 8 2 37 1
c72260 t24226 11 3 45 1
c72261 t24227 11 3 35 1
c72262 t24228 11 3 81 1
c72263 t24229 11 3 91 1
c72264 t24230 11 3 2 1
c72265 t24231 8 2 11 1
c72266 t24232 11 3 30 1
c72267 t24233 11 3 56 1
c72268 t24232 11 3 50 1
c72269 t24235 11 3 33 1
c72270 t24236 11 3 10 1
c72271 t24237 11 3 7 1
c72272 t24238 11 3 14 1
c72273 t24239 11 3 100 1
c72274 t24240 11 3 38 1
c72275 t24241 11 3 3 1
c72276 t24242 11 2 10 1
c72277 t24243 11 3 54 1
c72278 t24244 11 3 5 1
c72279 t24245 11 3 11 1
c72280 t24246 11 3 40 1
c72281 t24246 11 3 40 1
c72282 t24247 11 3 3 1
c72283 t24248 11 3 6 1
c72284 t24237 11 3 5 1
c72285 t24249 11 3 90 1
c72286 t24251 11 2 10 1
c72287 t24252 8 2 11 1
c72288 t24253 11 3 29 1
c72289 t24254 8 2 51 1
c72290 t24255 8 2 13 1
c72291 t24256 11 3 10 1
c72292 t24241 11 3 68 1
c72293 t24258 11 3 33 1
c72294 t24259 11 3 20 1
c72295 t24241 11 3 32 1
c72296 t24260 11 3 40 1
c72297 t24261 11 3 10 1
c72298 t24262 11 3 40 1
c72299 t24260 11 3 20 1
c72300 t24264 8 2 10 1
c72301 t24265 16 4 36 1
c72302 t24266 11 3 142 1
c72303 t24267 11 3 135 1
c72304 t24268 11 3 10 1
c72305 t24269 11 3 18 1
c72306 t24229 11 3 11 1
c72307 t24270 11 3 35 1
c72308 t24271 11 3 70 1
c72309 t24272 1 1 24 0
c72310 t24273 6 1 17 1
c72311 t24274 1 1 3 0
c72312 t24275 6 2 45 1
c72313 t24276 6 1 22 1
c72314 t24277 1 1 57 0
c72315 t24277 9 3 28 1
c72316 t24277 15 4 44 1
c72317 t24277 1 1 44 0
c72318 t24278 6 2 184 1
c72319 t24279 6 2 167 1
c72320 t24280 1 1 26 0
c72321 t24281 9 3 190 1
c72322 t24282 1 1 58 0
c72323 t24282 9 3 27 1
c72324 t24283 11 2 145 1
c72325 t24283 9 3 98 1
c72326 t24282 9 3 27 1
c72327 t24284 9 3 1 1
c72328 t24285 10 2 68 1
c72329 t24286 9 3 40 1
c72330 t24287 13 3 87 1
c72331 t24285 11 2 73 1
c72332 t24288 10 2 95 1
c72333 t24288 9 3 30 1
c72334 t24286 9 2 92 1
c72335 t24289 9 3 73 1
c72336 t24290 7 2 68 1
c72337 t24290 10 2 26 1
c72338 t24291 8 2 208 1
c72339 no_teacher2 1 1 33 0
c72340 t24292 1 1 20 0
c72341 t24293 5 2 29 1
c72342 t24286 3 1 28 1
c72343 t24294 9 2 60 1
c72344 t24295 6 2 115 1
c72345 t24296 11 2 102 1
c72346 t24294 9 2 106 1
c72347 t24297 9 3 27 1
c72348 t24298 9 2 88 1
c72349 t24299 9 3 74 1
c72350 t24300 6 2 85 1
c72351 t24301 5 2 18 1
c72352 t24284 6 2 90 1
c72353 t24303 6 2 53 1
c72354 t24303 6 2 6 1
c72355 t24304 7 2 117 1
c72356 t24305 9 3 33 1
c72357 t24297 9 3 34 1
c72358 t24299 9 2 114 1
c72359 t24306 6 2 2 1
c72360 t24306 1 1 2 0
c72361 t24295 6 2 43 1
c72362 t24304 9 3 59 1
c72363 t24307 6 2 11 1
c72364 t24307 9 3 29 1
c72365 t24308 6 2 82 1
c72366 t24309 6 2 9 1
c72367 t24292 8 2 63 1
c72368 t24310 8 2 202 1
c72369 t24311 9 2 179 1
c72370 t24309 9 3 26 1
c72371 t24312 11 4 26 1
c72372 t24288 7 2 40 1
c72373 t24313 11 3 151 1
c72374 t24287 13 2 85 1
c72375 t24288 1 1 40 0
c72376 t24274 6 2 25 1
c72377 t24314 6 2 81 1
c72378 t24315 7 2 8 1
c72379 t24316 6 2 159 1
c72380 t24317 8 2 25 1
c72381 t24318 6 2 115 1
c72382 t24319 8 2 88 1
c72383 t24319 8 2 165 1
c72384 t24275 8 3 135 1
c72385 t24320 6 2 12 1
c72386 t24321 1 1 84 0
c72387 t24274 1 1 3 0
c72388 no_teacher3 1 1 70 0
c72389 t24322 9 3 84 1
c72390 t24323 6 2 72 1
c72391 t24280 6 2 96 1
c72392 t24324 7 2 67 1
c72393 t24325 6 2 135 1
c72394 t24323 6 2 99 1
c72395 t24326 6 2 135 1
c72396 t24327 6 2 99 1
c72397 t24328 10 3 68 1
c72398 t24329 10 3 74 1
c72399 t24330 1 1 41 0
c72400 no_teacher4 1 1 150 0
c72401 no_teacher5 1 1 44 0
c72402 t24331 1 1 7 0
c72403 t24313 1 1 150 0
c72404 t24287 1 1 85 0
c72405 t24331 1 1 7 0
c72406 t24332 6 2 114 1
c72407 no_teacher6 1 1 0 0
c72408 no_teacher7 1 1 80 0
c72409 no_teacher8 1 1 118 0
c72410 t24333 6 1 30 1
c72411 t24334 8 1 118 1
c72412 t24335 6 1 119 1
c72413 t24336 9 2 119 1
c72414 t24276 8 2 14 1
c72415 t24313 10 1 14 1
c72416 t24337 7 2 186 1
c72417 t24302 7 2 94 1
c72418 t24338 6 2 51 1
c72419 t24339 9 3 0 1
c72420 t24339 9 3 0 1
c72421 t24340 6 2 90 1
c72422 t24340 9 3 88 1
c72423 t24341 8 2 84 1
c72424 t24331 6 1 0 1
c72425 t24328 3 1 2 1
c72426 t24342 10 3 32 1
c72427 t24342 9 3 100 1
c72428 t24343 7 2 91 1
c72429 t24289 6 1 9 1
c72430 t24344 7 2 91 1
c72431 t24345 6 1 14 1
c72432 no_teacher9 1 1 85 0
c72433 t24346 4 1 27 1
c72434 t24347 4 1 51 1
c72435 t24348 5 1 66 1
c72436 t24349 6 1 68 1
c72437 t24350 6 1 45 1
c72438 t24351 8 2 30 1
c72439 t24352 11 3 10 1
cU1 t24353 12 3 19 1
c72442 t24354 8 2 3 1
c72443 t24355 11 3 13 1
c72444 t24356 11 3 39 1
c72445 t24357 8 2 22 1
c72446 t24230 11 3 35 1
c72447 t24351 8 2 28 1
c72448 t24358 11 3 33 1
c72449 t24245 11 3 11 1
c72450 t24359 11 3 8 1
c72451 t24359 11 3 9 1
c72452 t24360 6 1 95 1
c72453 t24360 6 1 22 1
c72454 t24361 11 3 144 1
c72455 t24362 8 2 29 1
c72456 t24363 11 3 19 1
c72457 t24364 1 1 16 0
c72458 t24365 8 2 20 1
c72459 no_teacher10 4 1 55 1
c72460 t24367 4 1 0 1
c72461 t24368 6 1 20 1
c72462 t24369 8 2 20 1
c72463 t24370 11 3 21 1
c72464 t24371 11 3 163 1
c72465 t24372 11 3 157 1
c72466 t24373 11 3 245 1
c72467 t24374 11 3 94 1
c72468 t24375 11 3 34 1
c72469 t24231 8 2 120 1
c72470 t24373 11 3 45 1
c72471 t24376 8 2 90 1
c72472 t24377 8 2 90 1
c72473 t24378 11 3 26 1
c72474 t24379 11 3 24 1
c72475 t24380 8 2 12 1
c72476 t24381 11 3 19 1
c72477 t24382 8 2 15 1
c72478 t24383 11 3 10 1
c72479 t24384 11 3 26 1
c72480 t24385 11 3 151 1
c72481 t24386 8 2 16 1
c72482 t24363 8 2 25 1
c72483 t24357 11 3 171 1
c72484 t24387 11 3 149 1
c72485 t24389 10 1 23 1
c72486 t24390 8 2 74 1
c72487 t24391 8 2 14 1
c72488 t24392 11 3 45 1
c72489 t24393 4 1 4 1
c72490 t24388 11 3 0 1
c72491 t24379 8 1 119 1
c72492 t24394 11 2 91 1
c72493 t24262 11 3 164 1
c72494 t24395 11 3 87 1
c72495 no_teacher11 8 2 7 1
c72496 t24396 11 3 7 1
c72497 t24397 11 3 5 1
c72498 t24398 4 1 10 1
c72499 t24399 6 2 25 1
c72500 t24400 6 1 22 1
c72501 t24401 6 2 60 1
c72502 t24401 6 2 47 1
c72503 t24402 6 2 166 1
c72504 t24403 6 2 127 1
c72505 t24404 6 2 84 1
c72506 t24405 6 2 41 1
c72507 t24405 6 2 50 1
c72508 t24406 6 2 61 1
c72509 t24407 6 2 368 1
c72510 t24408 6 2 200 1
c72511 no_teacher12 6 2 200 1
c72512 t24408 6 2 50 1
c72513 t24409 1 1 0 0
c72514 t24409 1 1 0 0
c72515 t24411 4 1 7 1
c72516 t24412 10 3 72 1
c72517 t24413 6 2 130 1
c72518 t24414 6 2 50 1
c72519 t24415 4 1 18 1
c72520 t24416 6 2 34 1
c72521 t24416 6 2 29 1
c72522 t24417 6 2 29 1
c72523 t24411 6 2 80 1
c72524 t24418 6 2 28 1
c72525 t24419 6 3 63 1
c72526 t24411 6 2 40 1
c72527 t24420 6 2 30 1
c72528 t24420 6 2 20 1
c72529 t24421 6 2 10 1
c72530 t24421 6 2 30 1
c72531 t24421 6 2 30 1
c72532 t24422 4 1 127 1
c72533 t24422 1 1 50 0
c72534 t24424 6 2 80 1
c72535 t24425 6 3 17 1
c72536 t24425 6 3 25 1
c72537 t24426 6 2 146 1
c72538 no_teacher13 6 2 24 1
c72539 t24427 6 2 19 1
c72540 t24428 6 2 99 1
c72541 t24429 11 3 150 1
c72542 t24430 11 3 150 1
c72543 t24431 11 3 150 1
c72544 t24432 8 2 110 1
c72545 no_teacher14 4 1 40 1
c72546 t24433 4 1 30 1
c72547 t24434 8 2 50 1
c72548 t24399 6 2 160 1
c72549 t24434 10 2 60 1
c72550 t24414 10 2 60 1
c72551 t24435 4 1 20 1
c72552 t24436 4 1 20 1
c72553 t24437 4 1 20 1
c72554 t24438 6 2 43 1
c72555 t24439 4 1 0 1
c72556 t24440 8 2 43 1
c72557 t24441 4 1 43 1
c72558 t24439 4 1 43 1
c72559 t24440 4 1 43 1
c72560 t24435 4 1 20 1
c72561 t24436 4 1 40 1
c72562 t24437 4 1 40 1
c72563 t24437 6 1 51 1
c72564 t24440 4 1 51 1
c72565 t24442 6 1 51 1
c72566 no_teacher15 4 1 35 1
c72567 t24443 8 1 35 1
c72568 t24444 4 1 35 1
c72569 t24445 4 1 35 1
c72570 t24446 6 2 45 1
c72571 t24447 8 2 45 1
c72572 t24444 4 1 45 1
c72573 t24448 4 1 45 1
c72574 t24443 8 1 31 1
c72575 t24444 4 1 31 1
c72576 t24449 4 1 31 1
c72577 t24450 8 2 48 1
c72578 t24451 4 1 48 1
c72579 t24447 4 1 48 1
c72580 t24452 2 1 17 1
c72581 t24453 4 1 17 1
c72582 t24454 4 1 17 1
c72583 t24453 4 1 17 1
c72584 t24452 6 2 36 1
c72585 t24454 4 1 36 1
c72586 t24455 8 2 36 1
c72587 t24456 4 1 36 1
c72588 t24454 4 1 39 1
c72589 t24456 4 1 39 1
c72590 t24453 8 2 39 1
c72591 t24453 4 1 40 1
c72592 t24457 2 1 40 1
c72593 t24458 2 1 40 1
c72594 t24459 4 1 40 1
c72595 t24458 4 1 40 1
c72596 t24460 6 2 39 1
c72597 t24461 8 1 39 1
c72598 t24462 8 1 39 1
c72599 t24463 8 1 39 1
c72600 t24464 4 1 40 1
c72601 t24465 4 1 8 1
c72602 t24459 4 1 8 1
c72603 t24458 4 1 8 1
c72604 t24458 4 1 30 1
c72605 t24462 8 2 30 1
c72606 t24466 4 1 30 1
c72607 t24426 6 2 14 1
c72608 t24467 2 1 14 1
c72609 t24461 2 1 14 1
c72610 t24468 4 1 14 1
c72611 t24469 4 1 14 1
c72612 t24470 6 2 43 1
c72613 t24469 6 2 43 1
c72614 t24468 4 1 43 1
c72615 t24469 6 1 43 1
c72616 t24471 6 1 43 1
c72617 t24461 2 1 20 1
c72618 t24467 2 1 20 1
c72619 t24468 4 1 20 1
c72620 t24469 4 1 20 1
c72621 t24472 10 2 39 1
c72622 t24473 4 1 39 1
c72623 t24471 2 1 39 1
c72624 t24438 6 2 28 1
c72625 t24474 4 1 28 1
c72626 t24475 6 1 28 1
c72627 t24438 6 2 200 1
c72628 t24440 4 1 120 1
c72629 t24476 6 1 120 1
c72630 t24477 6 1 120 1
c72631 t24439 4 1 120 1
c72632 t24474 6 1 28 1
c72633 t24475 4 1 28 1
c72634 t24478 6 2 120 1
c72635 t24440 4 1 100 1
c72636 t24474 6 1 100 1
c72637 t24479 6 2 160 1
c72638 t24475 6 2 60 1
c72639 t24439 4 1 80 1
c72640 t24445 4 1 61 1
c72641 t24480 8 2 61 1
c72642 t24481 6 2 84 1
c72643 t24482 6 2 80 1
c72644 t24483 8 2 80 1
c72645 t24450 8 2 80 1
c72646 t24484 8 2 80 1
c72647 t24485 8 2 80 1
c72648 t24482 8 2 80 1
c72649 t24482 8 2 80 1
c72650 no_teacher16 6 2 40 1
c72651 t24445 4 1 59 1
c72652 t24480 8 2 59 1
c72653 no_teacher17 1 1 59 0
c72654 t24482 8 2 120 1
c72655 t24450 8 2 120 1
c72656 t24483 8 2 120 1
c72657 t24446 6 2 108 1
c72658 t24481 6 2 80 1
c72659 t24486 6 2 80 1
c72660 t24450 4 1 120 1
c72661 t24484 6 2 120 1
c72662 t24484 6 2 120 1
c72663 t24482 4 1 120 1
c72664 t24487 8 2 10 1
c72665 t24488 6 2 15 1
c72666 t24488 8 2 15 1
c72667 t24487 4 1 10 1
c72668 no_teacher18 1 1 15 0
c72669 t24420 4 1 20 1
c72670 t24487 10 3 15 1
c72671 t24489 8 2 6 1
c72672 t24489 8 2 40 1
c72673 no_teacher19 1 1 5 0
c72674 no_teacher20 8 2 40 1
c72675 t24489 6 2 50 1
c72676 t24490 8 2 40 1
c72677 t24491 6 2 15 1
c72678 t24492 6 1 15 1
c72679 t24454 4 1 15 1
c72680 t24491 6 2 80 1
c72681 t24456 4 1 120 1
c72682 t24456 4 1 120 1
c72683 t24455 6 1 120 1
c72684 t24454 4 1 20 1
c72685 t24491 1 1 100 0
c72686 t24453 6 1 100 1
c72687 t24453 6 1 100 1
c72688 t24456 4 1 100 1
c72689 t24456 4 1 100 1
c72690 t24492 4 1 80 1
c72691 t24455 6 1 80 1
c72692 t24454 4 1 80 1
c72693 t24493 8 2 30 1
c72694 t24460 6 2 80 1
c72695 t24460 6 2 80 1
c72696 t24494 10 2 120 1
c72697 t24463 10 2 120 1
c72698 t24462 10 2 120 1
c72699 t24494 8 2 30 1
c72700 no_teacher21 1 1 30 0
c72701 t24495 6 2 145 1
c72702 t24494 10 2 100 1
c72703 t24494 10 2 100 1
c72704 t24493 10 2 80 1
c72705 t24405 6 2 10 1
c72706 no_teacher22 1 1 10 0
c72707 t24496 6 2 20 1
c72708 t24497 8 2 20 1
c72709 t24496 6 2 40 1
c72710 t24497 8 2 20 1
c72711 no_teacher23 1 1 10 0
c72712 t24496 6 2 15 1
c72713 t24497 8 2 20 1
c72714 t24471 4 1 18 1
c72715 t24469 4 1 18 1
c72716 no_teacher24 1 1 18 0
c72717 t24469 10 2 80 1
c72718 t24471 2 1 80 1
c72719 t24472 6 2 80 1
c72720 t24471 2 1 0 1
c72721 t24471 1 1 80 0
c72722 t24472 4 1 15 1
c72723 t24471 4 1 15 1
c72724 t24472 10 3 80 1
c72725 t24471 6 1 50 1
c72726 no_teacher25 1 1 50 0
c72727 t24473 4 1 0 1
c72728 t24498 6 2 101 1
c72729 t24498 4 1 40 1
c72730 t24500 6 3 15 1
c72731 t24501 4 1 94 1
c72732 t24501 4 1 43 1
c72733 t24500 6 3 130 1
c72734 t24502 6 2 15 1
c72735 no_teacher26 1 1 80 0
c72736 t24503 6 1 99 1
c72737 t24504 6 2 150 1
c72738 t24254 6 2 150 1
c72739 t24505 8 3 150 1
c72740 t24358 6 2 15 1
c72741 t24452 6 2 126 1
c72742 no_teacher27 1 1 80 0
c72743 t24506 11 3 31 1
c72744 t24507 11 3 49 1
c72745 t24508 11 3 29 1
c72746 t24508 11 3 16 1
c72747 t24509 8 2 32 1
c72748 no_teacher28 12 3 28 1
c72749 t24510 11 3 40 1
c72750 t24510 8 2 12 1
c72751 t24511 11 3 14 1
c72752 t24509 8 2 18 1
c72753 t24291 8 2 6 1
c72754 t24300 11 3 204 1
c72755 t24323 8 2 20 1
c72756 no_teacher29 8 2 36 1
c72757 t24512 11 3 110 1
c72758 t24299 11 3 40 1
c72759 t24513 11 3 19 1
c72760 no_teacher30 12 3 20 1
c72761 t24507 11 3 110 1
c72762 t24514 16 4 197 1
c72763 t24515 11 3 94 1
c72764 t24516 1 1 173 0
c72765 t24516 1 1 76 0
c72766 t24477 6 1 27 1
c72767 t24477 4 1 7 1
c72768 t24518 6 1 48 1
c72769 t24518 6 1 19 1
c72770 t24519 11 3 42 1
c72771 t24243 8 2 30 1
c72772 t24406 11 3 79 1
c72773 t24406 11 3 29 1
c72774 t24520 11 3 17 1
c72775 t24521 8 2 33 1
c72776 t24326 11 3 138 1
c72777 t24516 6 2 173 1
c72778 t24516 6 2 76 1
c72779 t24477 6 2 27 1
c72780 t24517 6 2 7 1
c72781 t24518 6 2 48 1
c72782 t24518 6 2 19 1
c72783 no_teacher31 11 3 24 1
c72784 t24508 11 3 6 1
c72785 t24521 11 3 20 1
c72786 t24523 11 3 74 1
c72787 t24524 11 3 150 1
c72788 t24508 11 3 73 1
c72789 t24525 11 3 41 1
c72790 t24526 8 2 20 1
c72791 t24527 11 3 148 1
c72792 t24522 11 3 92 1
c72793 t24520 11 3 21 1
c72794 no_teacher32 11 3 25 1
c72795 no_teacher33 11 3 15 1
c72796 t24529 11 3 210 1
c72797 t24530 8 2 39 1
c72798 t24407 11 3 19 1
c72799 t24234 11 3 0 1
c72800 t24512 1 1 40 0
c72801 no_teacher34 11 3 20 1

ROOMS:
r1621 65 0
r1630 66 0
r1631 60 0
r1632 66 0
r1633 66 0
r1634 62 0
r1635 180 0
r1636 60 0
r1637 105 0
r1638 80 0
r1639 76 0
r1622 80 0
r1623 124 0
r1624 124 0
r1625 70 0
r1626 70 0
r1627 70 0
r1628 70 0
r1629 40 0
r1640 430 0
r1641 20 0
r1642 15 0
r1643 50 10
r1644 150 10
r1645 125 10
r1646 150 10
r1647 20 10
r1648 50 10
r1649 50 10
r1650 50 10
r1661 178 11
r1662 78 11
r1651 50 10
r1652 70 10
r1653 70 10
r1654 45 10
r1655 20 10
r1663 150 11
r1664 96 11
r1665 82 11
r1656 35 10
r1657 30 10
r1658 17 10
r1659 50 10
r1660 35 10
r1666 80 6
r1667 250 6
r1668 250 6
r1669 250 6
r1670 250 6
r1671 30 6
r1672 130 6
r1673 80 6
r1674 100 6
r1675 50 6
r1676 150 6
r1677 50 6
r1678 130 6
r1679 150 6
r1680 80 6
r1681 130 6
r1682 20 6
r1683 60 6
r1684 10 7
r1685 56 7
r1686 10 7
r1687 40 7
r1688 32 7
r1689 10 7
r1690 99 8
r1691 180 8
r1692 141 8
r1693 150 8
r1694 108 8
r1695 99 8
r1696 46 8
r1697 22 9
r1698 35 9
r1699 25 9
r1700 35 9
r1701 53 9
r1702 21 9
r1703 36 2
r1704 25 2
r1705 15 2
r1706 38 2
r1707 40 2
r1708 40 2
r1709 136 2
r1710 104 2
r1711 34 2
r1712 20 2
r1713 100 3
r1715 90 3
r1716 50 3
r1717 50 3
r1714 100 3
r1718 32 1
r1719 40 1
r1720 33 1
r1721 34 1
r1722 36 1
r1723 55 1
r1724 44 1
r1725 45 1
r1726 45 1
r1727 25 4
r1728 50 4
r1729 25 4
r1730 24 4
r1731 25 4
r1732 15 4
r1733 45 5
r1734 50 5
r1735 68 5
r1736 57 5
r1737 54 5
r1738 26 5
r1739 20 5
r1740 19 5
r1741 15 5
r1742 50 5
r1743 20 5
r1744 144 5

CURRICULA:
cu2037a 19 c72547 c72549 c72550 c72628 c72629 c72630 c72631 c72635 c72636 c72638 c72639 c72644 c72645 c72646 c72647 c72648 c72649 c72654 c72655
cu2037b 19 c72656 c72660 c72661 c72662 c72663 c72666 c72668 c72670 c72672 c72674 c72676 c72681 c72682 c72683 c72686 c72687 c72688 c72689 c72691
cu2037c 19 c72692 c72696 c72697 c72698 c72702 c72703 c72704 c72708 c72710 c72713 c72717 c72718 c72719 c72720 c72721 c72724 c72725 c72726 c72727
cu2038 26 c72625 c72626 c72632 c72633 c72640 c72641 c72651 c72652 c72653 c72664 c72667 c72671 c72673 c72678 c72679 c72684 c72693 c72699 c72700 c72706 c72711 c72714 c72715 c72716 c72722 c72723
cu2039a 24 c72555 c72556 c72557 c72558 c72564 c72565 c72571 c72572 c72573 c72577 c72578 c72579 c72585 c72586 c72587 c72588 c72589 c72590 c72597 c72598 c72599 c72604 c72605 c72606 
cu2039b 26 c72555 c72556 c72557 c72558 c72559 c72563 c72564 c72565 c72571 c72572 c72573 c72577 c72578 c72579 c72585 c72586 c72587 c72588 c72589 c72613 c72614 c72615 c72616 c72621 c72622 c72623
cu2040 31 c72551 c72552 c72553 c72560 c72561 c72562 c72567 c72568 c72569 c72574 c72575 c72576 c72581 c72582 c72583 c72591 c72592 c72593 c72594 c72595 c72601 c72602 c72603 c72608 c72609 c72610 c72611 c72617 c72618 c72619 c72620
cu2041 19 c72783 c72745 c72747 c72750 c72751 c72764 c72765 c72766 c72767 c72768 c72769 c72777 c72778 c72779 c72780 c72781 c72782 c72789 c72798
cu2042 14 c72745 c72747 c72750 c72765 c72767 c72769 c72778 c72780 c72782 c72785 c72789 c72790 c72798 c72801
cu2043 5 c72765 c72770 c72778 c72794 c72799
cu2044 6 c72765 c72770 c72778 c72794 c72795 c72799
cu2045 2 c72748 c72755
cu2046 4 c72744 c72751 c72755 c72771
cu2047 12 c72522 c72525 c72536 c72539 c72505 c72529 c72624 c72669 c72677 c72705 c72729 c72742
cu2048 9 c72508 c72522 c72525 c72536 c72539 c72502 c72624 c72677 c72729
cu2049 12 c72508 c72522 c72525 c72536 c72539 c72669 c72531 c72624 c72677 c72705 c72729 c72742
cu2050 7 c72508 c72504 c72624 c72650 c72669 c72677 c72705
cu2051 8 c72522 c72526 c72536 c72539 c72515 c72624 c72650 c72677
cu2052 5 c72624 c72650 c72669 c72677 c72705
cu2053 10 c72258 c72266 c72270 c72271 c72272 c72275 c72284 c72286 c72305 c72306
cu2054 12 c72286 c72258 c72261 c72266 c72270 c72271 c72272 c72284 c72292 c72302 c72305 c72306
cu2055 8 c72261 c72266 c72270 c72275 c72286 c72292 c72302 c72306
cu2056a 11 c72258 c72261 c72266 c72270 c72271 c72272 c72275 c72284 c72286 c72292 c72302
cu2056b 11 c72258 c72261 c72266 c72270 c72271 c72272 c72275 c72284 c72286 c72305 c72306
cu2057 6 c72258 c72266 c72270 c72286 c72292 c72302
cu2058 6 c72270 c72271 c72272 c72284 c72286 c72302
cu2059 1 c72305
cu2060 5 c72266 c72286 c72292 c72305 c72306
cu2061 3 c72265 c72279 c72290
cu2062 6 c72257 c72264 c72282 c72283 c72300 c72304
cu2063a 15 c72744 c72746 c72749 c72750 c72764 c72765 c72766 c72767 c72768 c72769 c72774 c72777 c72778 c72779 c72780 
cu2063b 15 c72744 c72746 c72749 c72750 c72764 c72765 c72766 c72767 c72768 c72769 c72781 c72782 c72784 c72789 c72800
cu2064a 15 c72745 c72775 c72743 c72750 c72764 c72765 c72766 c72767 c72768 c72769 c72777 c72778 c72779 c72780 c72781 
cu2064b 15 c72745 c72775 c72743 c72750 c72764 c72765 c72766 c72767 c72768 c72769 c72777 c72778 c72782 c72784 c72798
cu2065 15 c72745 c72750 c72764 c72765 c72766 c72767 c72768 c72769 c72777 c72778 c72779 c72780 c72781 c72782 c72784
cu2066 16 c72773 c72758 c72759 c72764 c72765 c72766 c72767 c72768 c72769 c72777 c72778 c72779 c72780 c72781 c72782 c72784
cu2067 13 c72749 c72764 c72765 c72766 c72767 c72768 c72769 c72777 c72778 c72779 c72780 c72781 c72782
cu2068 15 c72797 c72744 c72764 c72765 c72766 c72767 c72768 c72769 c72775 c72777 c72778 c72779 c72780 c72781 c72782
cu2069 16 c72756 c72760 c72764 c72765 c72766 c72767 c72768 c72769 c72777 c72778 c72779 c72780 c72781 c72782 c72789 c72793
cu2070 9 c72259 c72260 c72276 c72278 c72287 c72291 c72298 c72299 c72301
cu2071 3 c72267 c72272 c72281
cu2072 3 c72337 c72410 c72433
cu2073 3 c72310 c72312 c72431
cu2074 6 c72462 c72444 c72445 c72453 c72474 c72495
cu2075 7 c72462 c72448 c72455 c72456 c72489 c72490 c72498
cu2076 10 c72624 c72505 c72566 c72580 c72600 c72607 c72729 c72732 c72734 c72742
cu2077 5 c72580 c72503 c72504 c72600 c72607
cu2078 6 cU1 c72465 c72476 c72479 c72494 c72472
cu2079 4 c72465 c72483 c72493 c72472
cu2080 5 c72465 c72483 c72491 c72493 c72472
cu2081 2 c72444 c72472
cu2082 4 c72471 c72483 c72493 c72472
cu2083 1 c72472
cu2084 4 c72273 c72285 c72292 c72308
cu2085 11 c72273 c72267 c72268 c72269 c72274 c72288 c72292 c72293 c72295 c72302 c72303
cu2086 6 c72256 c72257 c72263 c72267 c72294 c72297
cu2087 7 c72418 c72315 c72323 c72364 c72399 c72400 c72401
cu2088 9 c72314 c72322 c72343 c72350 c72362 c72367 c72399 c72400 c72401
cu2089 5 c72356 c72357 c72370 c72407 c72432
cu2090 5 c72336 c72352 c72377 c72407 c72432
cu2091a 20 c72512 c72612 c72511 c72513 c72514 c72516 c72518 c72527 c72530 c72541 c72542 c72543 c72627 c72642 c72643 c72665 c72680 c72694 c72695 c72707 
cu2091b 20 c72512 c72612 c72500 c72510 c72511 c72513 c72514 c72516 c72518 c72527 c72530 c72542 c72627 c72642 c72643 c72665 c72680 c72737 c72738 c72739
cu2092 23 c72519 c72634 c72730 c72501 c72507 c72509 c72517 c72523 c72531 c72532 c72534 c72537 c72544 c72545 c72548 c72657 c72658 c72669 c72675 c72701 c72709 c72733 c72742
cu2093 24 c72519 c72634 c72685 c72501 c72506 c72509 c72517 c72523 c72528 c72531 c72532 c72534 c72537 c72544 c72545 c72548 c72657 c72658 c72669 c72675 c72701 c72709 c72730 c72742
cu2094 9 c72499 c72503 c72637 c72659 c72669 c72675 c72690 c72712 c72736
cu2095 16 c72517 c72519 c72521 c72531 c72533 c72535 c72538 c72544 c72546 c72637 c72659 c72669 c72675 c72690 c72712 c72740
cu2096 9 c72762 c72764 c72766 c72768 c72776 c72777 c72779 c72781 c72796
cu2097 9 c72754 c72764 c72766 c72768 c72777 c72779 c72781 c72787 c72791
cu2098 11 c72752 c72757 c72761 c72765 c72767 c72769 c72772 c72778 c72780 c72782 c72797
cu2099 3 c72763 c72776 c72792
cu2101 8 c72786 c72764 c72766 c72768 c72777 c72779 c72781 c72788
cu2102 15 c72752 c72753 c72754 c72764 c72765 c72766 c72767 c72768 c72769 c72777 c72778 c72779 c72780 c72781 c72782
cu2103 6 c72392 c72329 c72388 c72397 c72399 c72400
cu2104 7 c72328 c72383 c72386 c72388 c72399 c72400 c72421
cu2105 8 c72393 c72394 c72419 c72420 c72384 c72395 c72396 c72423
cu2106 10 c72411 c72412 c72413 c72344 c72355 c72399 c72400 c72401 c72434 c72435
cu2107 5 c72381 c72406 c72423 c72436 c72437
cu2108 4 c72303 c72262 c72277 c72307
cu2109 7 c72257 c72280 c72302 c72293 c72294 c72295 c72297
cu2110 5 c72269 c72288 c72289 c72292 c72296
cu2111 11 c72509 c72513 c72514 c72540 c72728 c72516 c72554 c72570 c72584 c72596 c72612
cu2112 10 c72504 c72731 c72741 c72517 c72520 c72524 c72532 c72534 c72537 c72544
cu2113 1 c72735
cu2114 10 c72389 c72390 c72391 c72330 c72331 c72332 c72382 c72383 c72398 c72422
cu2115 10 c72373 c72374 c72403 c72404 c72414 c72415 c72416 c72417 c72324 c72325
cu2116a 23 c72387 c72402 c72405 c72312 c72313 c72338 c72340 c72341 c72345 c72346 c72350 c72351 c72352 c72353 c72354 c72358 c72361 c72365 c72376 c72377 c72378 c72379 c72380 
cu2116b 23 c72387 c72402 c72405 c72312 c72313 c72338 c72340 c72341 c72345 c72346 c72350 c72351 c72352 c72353 c72354 c72358 c72361 c72365 c72385 c72421 c72423 c72424 c72429
cu2117a 25 c72311 c72318 c72319 c72369 c72387 c72402 c72405 c72312 c72313 c72321 c72327 c72340 c72341 c72350 c72351 c72352 c72353 c72354 c72361 c72365 c72376 c72377 c72378 c72379 c72380 
cu2117b 24 c72318 c72319 c72369 c72387 c72402 c72405 c72312 c72313 c72321 c72327 c72340 c72341 c72350 c72351 c72352 c72353 c72354 c72385 c72421 c72423 c72424 c72427 c72428 c72429
cu2118a 22 c72387 c72402 c72405 c72313 c72334 c72335 c72340 c72341 c72348 c72349 c72350 c72351 c72352 c72353 c72361 c72365 c72376 c72377 c72378 c72379 c72380 c72385 
cu2118 25 c72311 c72312 c72354 c72387 c72402 c72405 c72313 c72334 c72335 c72340 c72341 c72348 c72349 c72350 c72351 c72352 c72353 c72361 c72408 c72409 c72421 c72423 c72424 c72429 c72430
cu2119b 3 c72392 c72329 c72397
cu2120 7 c72309 c72372 c72375 c72418 c72315 c72323 c72364
cu2121 9 c72359 c72360 c72425 c72342 c72356 c72357 c72363 c72366 c72370
cu2122 12 c72316 c72317 c72359 c72360 c72425 c72320 c72326 c72342 c72363 c72366 c72371 c72426
cu2123 14 c72311 c72359 c72360 c72387 c72425 c72333 c72339 c72340 c72342 c72347 c72363 c72366 c72408 c72409
cu2124 12 c72447 c72448 c72451 c72453 c72457 c72458 c72459 c72460 c72461 c72488 c72496 c72473
cu2125 10 c72448 c72457 c72458 c72459 c72460 c72461 c72470 c72474 c72489 c72497
cu2126 6 c72457 c72458 c72459 c72460 c72461 c72470
cu2127 7 c72457 c72458 c72459 c72460 c72461 c72478 c72488
cu2128 7 c72439 c72442 c72443 c72444 c72471 c72475 c72472
cu2129 5 c72471 c72481 c72482 c72484 c72472
cu2130 5 c72480 c72481 c72482 c72486 c72472
cu2131 9 c72454 c72457 c72458 c72459 c72460 c72461 c72463 c72464 c72468
cu2132 12 c72444 c72452 c72457 c72458 c72459 c72460 c72461 c72463 c72464 c72469 c72493 c72494
cu2133 8 c72446 c72457 c72458 c72459 c72460 c72461 c72464 c72469
cu2134 6 c72457 c72458 c72459 c72460 c72461 c72494
cu2135 10 c72450 c72454 c72457 c72458 c72459 c72460 c72461 c72466 c72468 c72492
cu2136 8 c72444 c72457 c72458 c72459 c72460 c72461 c72480 c72492
cu2137 8 cU1 c72449 c72457 c72458 c72459 c72460 c72461 c72487
cu2138 13 c72457 c72458 c72459 c72460 c72461 c72467 c72468 c72480 c72483 c72484 c72492 c72493 c72494
cu2139 11 c72438 c72452 c72454 c72457 c72458 c72459 c72460 c72461 c72467 c72477 c72485

UNAVAILABILITY_CONSTRAINTS:

ROOM_CONSTRAINTS:
c72439 r1703
c72439 r1706
c72439 r1711
c72439 r1728
c72439 r1730
c72439 r1731
cU1 r1703
cU1 r1706
cU1 r1711
cU1 r1728
cU1 r1730
cU1 r1731
c72445 r1703
c72445 r1706
c72445 r1711
c72445 r1728
c72445 r1730
c72445 r1731
c72446 r1703
c72446 r1706
c72446 r1711
c72446 r1728
c72446 r1730
c72446 r1731
c72448 r1703
c72448 r1706
c72448 r1711
c72448 r1730
c72448 r1731
c72449 r1703
c72449 r1706
c72449 r1711
c72449 r1728
c72449 r1730
c72449 r1731
c72450 r1703
c72450 r1706
c72450 r1728
c72450 r1730
c72450 r1731
c72451 r1703
c72451 r1706
c72451 r1711
c72451 r1728
c72451 r1730
c72451 r1731
c72454 r1703
c72454 r1706
c72454 r1711
c72455 r1703
c72455 r1706
c72455 r1711
c72455 r1728
c72455 r1730
c72455 r1731
c72460 r1703
c72460 r1706
c72460 r1711
c72460 r1728
c72460 r1730
c72460 r1731
c72461 r1703
c72461 r1706
c72461 r1711
c72461 r1728
c72461 r1730
c72461 r1731
c72462 r1703
c72462 r1706
c72462 r1711
c72462 r1728
c72462 r1730
c72462 r1731
c72464 r1703
c72464 r1706
c72464 r1728
c72464 r1730
c72464 r1731
c72465 r1703
c72465 r1706
c72465 r1711
c72465 r1728
c72465 r1730
c72465 r1731
c72466 r1703
c72466 r1706
c72466 r1711
c72466 r1728
c72466 r1730
c72466 r1731
c72470 r1703
c72470 r1706
c72470 r1711
c72470 r1728
c72470 r1730
c72470 r1731
c72472 r1703
c72472 r1706
c72472 r1711
c72472 r1728
c72472 r1730
c72472 r1731
c72473 r1703
c72473 r1706
c72473 r1711
c72473 r1723
c72473 r1728
c72473 r1730
c72473 r1731
c72478 r1703
c72478 r1706
c72478 r1711
c72478 r1728
c72478 r1730
c72478 r1731
c72481 r1703
c72481 r1706
c72481 r1711
c72481 r1728
c72481 r1730
c72481 r1731
c72482 r1703
c72482 r1706
c72482 r1711
c72482 r1728
c72482 r1730
c72482 r1731
c72483 r1703
c72483 r1706
c72483 r1711
c72483 r1728
c72483 r1730
c72483 r1731
c72484 r1703
c72484 r1706
c72484 r1711
c72484 r1728
c72484 r1730
c72484 r1731
c72486 r1703
c72486 r1706
c72486 r1711
c72486 r1728
c72486 r1730
c72486 r1731
c72488 r1703
c72488 r1706
c72488 r1728
c72488 r1730
c72488 r1731
c72489 r1703
c72489 r1706
c72489 r1711
c72489 r1728
c72489 r1730
c72489 r1731
c72490 r1703
c72490 r1706
c72490 r1728
c72490 r1730
c72490 r1731
c72491 r1703
c72491 r1706
c72491 r1711
c72491 r1728
c72491 r1730
c72491 r1731
c72493 r1703
c72493 r1706
c72493 r1711
c72493 r1728
c72493 r1730
c72493 r1731
c72494 r1703
c72494 r1706
c72494 r1711
c72494 r1728
c72494 r1730
c72494 r1731
c72495 r1703
c72495 r1706
c72495 r1711
c72495 r1728
c72495 r1730
c72495 r1731
c72497 r1703
c72497 r1706
c72497 r1711
c72497 r1728
c72497 r1730
c72497 r1731
c72498 r1703
c72498 r1706
c72498 r1711
c72498 r1728
c72498 r1730
c72498 r1731

END.
